(assert (forall ((pkt_0_4_6_0  Int  )(state_group_0_state_0_5_7_0  Int  )(state_group_1_state_0_6_8_0  Int  )) (let ((_n0 state_group_0_state_0_5_7_0 ))
(let ((_n1 pkt_0_4_6_0 ))
(let ((_n2 (<   _n1   _n0 ) ))
(let ((_n3 (ite  _n2   _n0   _n1  ) ))
(let ((_n4 (<   _n0   _n1 ) ))
(let ((_n5 false ))
(let ((_n6 (ite  _n4   _n1   (ite  _n5  1 0)  ) ))
(let ((_n7 (ite  _n4   (ite  _n5  1 0)   _n0  ) ))
(let ((_n8 (+   _n7   _n6 ) ))
(let ((_n9 (ite (=  (ite  _n4  1 0)  1)  _n8   _n0  ) ))
(let ((_n10 (=   _n9   _n3 ) ))
(let ((_n12 state_group_1_state_0_6_8_0 ))
(let ((_n13 true ))
(let ((_n14 (+   _n12   (ite  _n13  1 0) ) ))
(let ((_n15 (ite  _n2   _n14   _n12  ) ))
(let ((_n16 (+   _n1   (ite  _n13  1 0) ) ))
(let ((_n17 (<   _n9   _n16 ) ))
(let ((_n18 (not  _n17 ) ))
(let ((_n19 (<   (ite  _n5  1 0)   (ite  _n18  1 0) ) ))
(let ((_n20 (+   _n12   (ite  _n19  1 0) ) ))
(let ((_n21 (ite (=  (ite  _n19  1 0)  1)  _n20   _n12  ) ))
(let ((_n22 (=   _n21   _n15 ) ))
(implies  (and (and (>= state_group_1_state_0_6_8_0 0) (< state_group_1_state_0_6_8_0 1024 ))  (and (and (>= state_group_0_state_0_5_7_0 0) (< state_group_0_state_0_5_7_0 1024 ))  (and (>= pkt_0_4_6_0 0) (< pkt_0_4_6_0 1024 )) ) )   (and  _n10  _n22 )  )))))))))))))))))))))))))
(check-sat)
(get-model)
(exit)